Model = 1_orb_Hubbard_GC
------------------------------------------
Length = 8
N_Total = 8
CFS_SITE_RESOLVED = false 0 -0.6 0 0 -0.6 0 0 -0.6 0 0 -0.6 0
LongRangeHopping_file = Hopping.txt
LongRangeDenDenInt_file = DenDen.txt
U = 3.8
H_mag = 0.0


FourPointObsSet_file = CdagCdagC_Corrs_pos.txt
----------------------------------------
Saving_Hamiltonian_and_Oprs = true
Random_seed_generator = 564
--------------------------------------

Lanc_Error = 10e-12
max_steps = 600
file_eval_spectrum = Tri_evals_OBC_GC.txt
save_all_Krylov_space_vecs = true
get_overlap_bw_eigstates_and_K_vecs = false
lanczos_reorthogonalization = true
Get_Full_Spectrum = true
need_few_eig_vecs = true
Get_overlap_with_basis = true
States_to_look = 4 0 1 2 3
#4 5 6 7 8 9 10 11 12 13 14 15 16 17 18 19 20 21 22 23
overlap_out_file = out0.txt
calculate_local_obs_for_states_to_look = false
calculate_local_obs_for_states_to_look_for_first_n_basis = 4000
file_out_local_obs_for_states_to_look = local_obs_for_state_no
Read_the_seed = false
seed_file = seed_GSold.txt
--------------------------------------




----------------------------------
Perform_Dynamics = false
check_omega = 2.0
Opr_for_Dynamics = Delta_SOC
Momentum_resolved = false
k = 0.0
file_dynamics_out = spindn_site1
Dynamics_dos_operators = 1 1.0 0.0 0 1 0
---------------------------------------------------

---------------For both RIXS and std. dynamics---------
eta = 0.01
omega_max = 10.0
omega_min = -10.0
d_omega = 0.002
--------------------------------------

----------------------------------------
Perform_RIXS = false
Gamma = 0.2
No_of_intermediate_states(n) = 100
Light_polarization_in = 1 0 0
Light_polarization_in = 0 1 0
Incident_energy = 0.1
----------------------------------------


Processors = 1
