Model = 1_orb_Hubbard_GC
------------------------------------------
Length = 8
N_Total = 8
CFS_SITE_RESOLVED = false 0 -0.6 0 0 -0.6 0 0 -0.6 0 0 -0.6 0
LongRangeHopping_file = Hopping.txt
LongRangeDenDenInt_file = DenDenSpinResolved.txt
U = 100.0
H_mag_site_resolved = true 0.0 -0.0

FourPointObsSet_file = 4pt_Cd_C_Cd_C.txt


Calculate_Bipartite_Entanglement = true
Sys1 = 0 2 4 6
Sys2 = 1 3 5 7

----------------------------------------
Saving_Hamiltonian_and_Oprs = true
Random_seed_generator = 564
--------------------------------------

Lanc_Error = -10e-12
max_steps = 100
file_eval_spectrum = Tri_evals_OBC_GC.txt
save_all_Krylov_space_vecs = truee
get_overlap_bw_eigstates_and_K_vecs = truee
lanczos_reorthogonalization = truee
Get_Full_Spectrum = truee
need_few_eig_vecs = false
Get_overlap_with_basis = false
States_to_look = 24 0 1 2 3 4 5 6 7 8 9 10 11 12 13 14 15 16 17 18 19 20 21 22 23
overlap_out_file = out0.txt
calculate_local_obs_for_states_to_look = false
calculate_local_obs_for_states_to_look_for_first_n_basis = 4000
file_out_local_obs_for_states_to_look = local_obs_for_state_no
Read_the_seed = false
seed_file = seed_GSold.txt
--------------------------------------


----------------------------------
Perform_Dynamics = truee
check_omega = 0.5
Opr_for_Dynamics = Delta_SOC
Momentum_resolved = false
k = 0.0
file_dynamics_out = AFMspin1_a0_k0
Dynamics_dos_operators = 6 1.0 0.0 0 1 0 1.0 0.0 0 1 2 1.0 0.0 0 1 4 1.0 0.0 0 1 6 1.0 0.0 0 1 8 1.0 0.0 0 1 10 

#AFMspin1_a0_kpiby2
#6 1.0 0.0 0 1 0 0.0 1.0 0 1 2 -1.0 0.0 0 1 4 0.0 -1.0 0 1 6 1.0 0.0 0 1 8 0.0 1.0 0 1 10

#AFMspin1_a0_k0
#6 1.0 0.0 0 1 0 1.0 0.0 0 1 2 1.0 0.0 0 1 4 1.0 0.0 0 1 6 1.0 0.0 0 1 8 1.0 0.0 0 1 10

#AFMspin0_a0_k0
#6 1.0 0.0 0 0 0 1.0 0.0 0 0 2 1.0 0.0 0 0 4 1.0 0.0 0 0 6 1.0 0.0 0 0 8 1.0 0.0 0 0 10

#AFMspin0_a1_k0
#6 1.0 0.0 0 0 1 1.0 0.0 0 0 3 1.0 0.0 0 0 5 1.0 0.0 0 0 7 1.0 0.0 0 0 9 1.0 0.0 0 0 11

#AFMspin1_a1_k0
#6 1.0 0.0 0 1 1 1.0 0.0 0 1 3 1.0 0.0 0 1 5 1.0 0.0 0 1 7 1.0 0.0 0 1 9 1.0 0.0 0 1 11

---------------------------------------------------

---------------For both RIXS and std. dynamics---------
eta = 0.05
omega_max = 11.0
omega_min = -2.0
d_omega = 0.02
--------------------------------------

----------------------------------------
Perform_RIXS = false
Gamma = 0.2
No_of_intermediate_states(n) = 100
Light_polarization_in = 1 0 0
Light_polarization_in = 0 1 0
Incident_energy = 0.1
----------------------------------------


Processors = 4
